(set-logic HORN)
(declare-datatypes ((Nat_1 0)) (((Z_0 ) (S_0 (unS_0 Nat_1)))))
(declare-fun diseqNat_0 (Nat_1 Nat_1) Bool)
(declare-fun unS_1 (Nat_1 Nat_1) Bool)
(declare-fun isZ_0 (Nat_1) Bool)
(declare-fun isS_0 (Nat_1) Bool)
(assert (forall ((x_117 Nat_1) (x_116 Nat_1))
	(=> (= x_117 (S_0 x_116))
	    (unS_1 x_116 x_117))))
(assert (isZ_0 Z_0))
(assert (forall ((x_118 Nat_1))
	(isS_0 (S_0 x_118))))
(assert (forall ((x_119 Nat_1))
	(diseqNat_0 Z_0 (S_0 x_119))))
(assert (forall ((x_120 Nat_1))
	(diseqNat_0 (S_0 x_120) Z_0)))
(assert (forall ((x_121 Nat_1) (x_122 Nat_1))
	(=> (diseqNat_0 x_121 x_122)
	    (diseqNat_0 (S_0 x_121) (S_0 x_122)))))
(declare-fun add_0 (Nat_1 Nat_1 Nat_1) Bool)
(declare-fun minus_1 (Nat_1 Nat_1 Nat_1) Bool)
(declare-fun le_0 (Nat_1 Nat_1) Bool)
(declare-fun ge_0 (Nat_1 Nat_1) Bool)
(declare-fun lt_0 (Nat_1 Nat_1) Bool)
(declare-fun gt_0 (Nat_1 Nat_1) Bool)
(declare-fun mult_0 (Nat_1 Nat_1 Nat_1) Bool)
(declare-fun div_0 (Nat_1 Nat_1 Nat_1) Bool)
(declare-fun mod_0 (Nat_1 Nat_1 Nat_1) Bool)
(assert (forall ((y_18 Nat_1))
	(add_0 y_18 Z_0 y_18)))
(assert (forall ((x_114 Nat_1) (y_18 Nat_1) (r_0 Nat_1))
	(=> (add_0 r_0 x_114 y_18)
	    (add_0 (S_0 r_0) (S_0 x_114) y_18))))
(assert (forall ((y_18 Nat_1))
	(minus_1 Z_0 Z_0 y_18)))
(assert (forall ((x_114 Nat_1) (y_18 Nat_1) (r_0 Nat_1))
	(=> (minus_1 r_0 x_114 y_18)
	    (minus_1 (S_0 r_0) (S_0 x_114) y_18))))
(assert (forall ((y_18 Nat_1))
	(le_0 Z_0 y_18)))
(assert (forall ((x_114 Nat_1) (y_18 Nat_1))
	(=> (le_0 x_114 y_18)
	    (le_0 (S_0 x_114) (S_0 y_18)))))
(assert (forall ((y_18 Nat_1))
	(ge_0 y_18 Z_0)))
(assert (forall ((x_114 Nat_1) (y_18 Nat_1))
	(=> (ge_0 x_114 y_18)
	    (ge_0 (S_0 x_114) (S_0 y_18)))))
(assert (forall ((y_18 Nat_1))
	(lt_0 Z_0 (S_0 y_18))))
(assert (forall ((x_114 Nat_1) (y_18 Nat_1))
	(=> (lt_0 x_114 y_18)
	    (lt_0 (S_0 x_114) (S_0 y_18)))))
(assert (forall ((y_18 Nat_1))
	(gt_0 (S_0 y_18) Z_0)))
(assert (forall ((x_114 Nat_1) (y_18 Nat_1))
	(=> (gt_0 x_114 y_18)
	    (gt_0 (S_0 x_114) (S_0 y_18)))))
(assert (forall ((y_18 Nat_1))
	(mult_0 Z_0 Z_0 y_18)))
(assert (forall ((x_114 Nat_1) (y_18 Nat_1) (r_0 Nat_1) (z_11 Nat_1))
	(=>	(and (mult_0 r_0 x_114 y_18)
			(add_0 z_11 r_0 y_18))
		(mult_0 z_11 (S_0 x_114) y_18))))
(assert (forall ((x_114 Nat_1) (y_18 Nat_1))
	(=> (lt_0 x_114 y_18)
	    (div_0 Z_0 x_114 y_18))))
(assert (forall ((x_114 Nat_1) (y_18 Nat_1) (r_0 Nat_1) (z_11 Nat_1))
	(=>	(and (ge_0 x_114 y_18)
			(minus_1 z_11 x_114 y_18)
			(div_0 r_0 z_11 y_18))
		(div_0 (S_0 r_0) x_114 y_18))))
(assert (forall ((x_114 Nat_1) (y_18 Nat_1))
	(=> (lt_0 x_114 y_18)
	    (mod_0 x_114 x_114 y_18))))
(assert (forall ((x_114 Nat_1) (y_18 Nat_1) (r_0 Nat_1) (z_11 Nat_1))
	(=>	(and (ge_0 x_114 y_18)
			(minus_1 z_11 x_114 y_18)
			(mod_0 r_0 z_11 y_18))
		(mod_0 r_0 x_114 y_18))))
(declare-datatypes ((Nat_0 0)) (((zero_0 ) (succ_0 (p_0 Nat_0)))))
(declare-fun diseqNat_1 (Nat_0 Nat_0) Bool)
(declare-fun p_1 (Nat_0 Nat_0) Bool)
(declare-fun iszero_0 (Nat_0) Bool)
(declare-fun issucc_0 (Nat_0) Bool)
(assert (forall ((x_125 Nat_0) (x_124 Nat_0))
	(=> (= x_125 (succ_0 x_124))
	    (p_1 x_124 x_125))))
(assert (iszero_0 zero_0))
(assert (forall ((x_126 Nat_0))
	(issucc_0 (succ_0 x_126))))
(assert (forall ((x_127 Nat_0))
	(diseqNat_1 zero_0 (succ_0 x_127))))
(assert (forall ((x_128 Nat_0))
	(diseqNat_1 (succ_0 x_128) zero_0)))
(assert (forall ((x_129 Nat_0) (x_130 Nat_0))
	(=> (diseqNat_1 x_129 x_130)
	    (diseqNat_1 (succ_0 x_129) (succ_0 x_130)))))
(declare-datatypes ((list_0 0)) (((nil_0 ) (cons_0 (head_0 Nat_0) (tail_0 list_0)))))
(declare-fun diseqlist_0 (list_0 list_0) Bool)
(declare-fun head_1 (Nat_0 list_0) Bool)
(declare-fun tail_1 (list_0 list_0) Bool)
(declare-fun isnil_0 (list_0) Bool)
(declare-fun iscons_0 (list_0) Bool)
(assert (forall ((x_134 list_0) (x_132 Nat_0) (x_133 list_0))
	(=> (= x_134 (cons_0 x_132 x_133))
	    (head_1 x_132 x_134))))
(assert (forall ((x_134 list_0) (x_132 Nat_0) (x_133 list_0))
	(=> (= x_134 (cons_0 x_132 x_133))
	    (tail_1 x_133 x_134))))
(assert (isnil_0 nil_0))
(assert (forall ((x_135 Nat_0) (x_136 list_0))
	(iscons_0 (cons_0 x_135 x_136))))
(assert (forall ((x_137 Nat_0) (x_138 list_0))
	(diseqlist_0 nil_0 (cons_0 x_137 x_138))))
(assert (forall ((x_139 Nat_0) (x_140 list_0))
	(diseqlist_0 (cons_0 x_139 x_140) nil_0)))
(assert (forall ((x_141 Nat_0) (x_142 list_0) (x_143 Nat_0) (x_144 list_0))
	(=> (diseqNat_1 x_141 x_143)
	    (diseqlist_0 (cons_0 x_141 x_142) (cons_0 x_143 x_144)))))
(assert (forall ((x_141 Nat_0) (x_142 list_0) (x_143 Nat_0) (x_144 list_0))
	(=> (diseqlist_0 x_142 x_144)
	    (diseqlist_0 (cons_0 x_141 x_142) (cons_0 x_143 x_144)))))
(declare-datatypes ((pair_0 0)) (((pair_1 (projpair_0 list_0) (projpair_1 list_0)))))
(declare-fun diseqpair_0 (pair_0 pair_0) Bool)
(declare-fun projpair_2 (list_0 pair_0) Bool)
(declare-fun projpair_3 (list_0 pair_0) Bool)
(declare-fun ispair_0 (pair_0) Bool)
(assert (forall ((x_147 pair_0) (x_145 list_0) (x_146 list_0))
	(=> (= x_147 (pair_1 x_145 x_146))
	    (projpair_2 x_145 x_147))))
(assert (forall ((x_147 pair_0) (x_145 list_0) (x_146 list_0))
	(=> (= x_147 (pair_1 x_145 x_146))
	    (projpair_3 x_146 x_147))))
(assert (forall ((x_148 list_0) (x_149 list_0))
	(ispair_0 (pair_1 x_148 x_149))))
(assert (forall ((x_150 list_0) (x_151 list_0) (x_152 list_0) (x_153 list_0))
	(=> (diseqlist_0 x_150 x_152)
	    (diseqpair_0 (pair_1 x_150 x_151) (pair_1 x_152 x_153)))))
(assert (forall ((x_150 list_0) (x_151 list_0) (x_152 list_0) (x_153 list_0))
	(=> (diseqlist_0 x_151 x_153)
	    (diseqpair_0 (pair_1 x_150 x_151) (pair_1 x_152 x_153)))))
(declare-fun take_0 (list_0 Nat_0 list_0) Bool)
(assert (forall ((x_0 Nat_0) (y_0 list_0) (z_0 Nat_0) (z_1 Nat_0) (xs_0 list_0) (x_24 list_0) (x_25 list_0))
	(=>	(and (= x_24 (cons_0 z_1 x_25))
			(take_0 x_25 z_0 xs_0)
			(= x_0 (succ_0 z_0))
			(= y_0 (cons_0 z_1 xs_0)))
		(take_0 x_24 x_0 y_0))))
(assert (forall ((x_0 Nat_0) (y_0 list_0) (z_0 Nat_0) (x_26 list_0))
	(=>	(and (= x_26 nil_0)
			(= x_0 (succ_0 z_0))
			(= y_0 nil_0))
		(take_0 x_26 x_0 y_0))))
(assert (forall ((x_0 Nat_0) (y_0 list_0) (x_27 list_0))
	(=>	(and (= x_27 nil_0)
			(= x_0 zero_0))
		(take_0 x_27 x_0 y_0))))
(declare-fun plus_0 (Nat_0 Nat_0 Nat_0) Bool)
(assert (forall ((x_1 Nat_0) (y_1 Nat_0) (z_2 Nat_0) (x_28 Nat_0) (x_29 Nat_0))
	(=>	(and (= x_28 (succ_0 x_29))
			(plus_0 x_29 z_2 y_1)
			(= x_1 (succ_0 z_2)))
		(plus_0 x_28 x_1 y_1))))
(assert (forall ((x_1 Nat_0) (y_1 Nat_0) (x_30 Nat_0))
	(=>	(and (= x_30 y_1)
			(= x_1 zero_0))
		(plus_0 x_30 x_1 y_1))))
(declare-fun minus_0 (Nat_0 Nat_0 Nat_0) Bool)
(assert (forall ((x_2 Nat_0) (y_2 Nat_0) (z_3 Nat_0) (y_3 Nat_0) (x_31 Nat_0) (x_32 Nat_0))
	(=>	(and (= x_31 x_32)
			(minus_0 x_32 z_3 y_3)
			(= x_2 (succ_0 z_3))
			(= y_2 (succ_0 y_3)))
		(minus_0 x_31 x_2 y_2))))
(assert (forall ((x_2 Nat_0) (y_2 Nat_0) (z_3 Nat_0) (x_33 Nat_0))
	(=>	(and (= x_33 zero_0)
			(= x_2 (succ_0 z_3))
			(= y_2 zero_0))
		(minus_0 x_33 x_2 y_2))))
(assert (forall ((x_2 Nat_0) (y_2 Nat_0) (x_34 Nat_0))
	(=>	(and (= x_34 zero_0)
			(= x_2 zero_0))
		(minus_0 x_34 x_2 y_2))))
(declare-fun third_0 (Nat_0 Nat_0) Bool)
(assert (forall ((x_3 Nat_0) (x_35 Nat_0))
	(=>	(and (= x_35 zero_0)
			(= x_3 (succ_0 (succ_0 zero_0))))
		(third_0 x_35 x_3))))
(assert (forall ((x_3 Nat_0) (x_36 Nat_0))
	(=>	(and (= x_36 zero_0)
			(diseqNat_1 x_3 (succ_0 (succ_0 zero_0)))
			(= x_3 (succ_0 zero_0)))
		(third_0 x_36 x_3))))
(assert (forall ((x_3 Nat_0) (x_37 Nat_0))
	(=>	(and (= x_37 zero_0)
			(= x_3 (succ_0 (succ_0 zero_0))))
		(third_0 x_37 x_3))))
(assert (forall ((x_3 Nat_0) (y_4 Nat_0) (x_38 Nat_0) (x_39 Nat_0) (x_40 Nat_0) (x_41 Nat_0))
	(=>	(and (= x_38 x_41)
			(minus_0 x_39 (succ_0 y_4) (succ_0 (succ_0 (succ_0 zero_0))))
			(third_0 x_40 x_39)
			(plus_0 x_41 (succ_0 zero_0) x_40)
			(diseqNat_1 x_3 (succ_0 (succ_0 zero_0)))
			(diseqNat_1 x_3 (succ_0 zero_0))
			(= x_3 (succ_0 y_4)))
		(third_0 x_38 x_3))))
(assert (forall ((x_3 Nat_0) (x_42 Nat_0))
	(=>	(and (= x_42 zero_0)
			(= x_3 (succ_0 (succ_0 zero_0))))
		(third_0 x_42 x_3))))
(assert (forall ((x_3 Nat_0) (x_43 Nat_0))
	(=>	(and (= x_43 zero_0)
			(diseqNat_1 x_3 (succ_0 (succ_0 zero_0)))
			(= x_3 (succ_0 zero_0)))
		(third_0 x_43 x_3))))
(assert (forall ((x_3 Nat_0) (x_44 Nat_0))
	(=>	(and (= x_44 zero_0)
			(= x_3 (succ_0 (succ_0 zero_0))))
		(third_0 x_44 x_3))))
(assert (forall ((x_3 Nat_0) (x_45 Nat_0))
	(=>	(and (= x_45 zero_0)
			(diseqNat_1 x_3 (succ_0 (succ_0 zero_0)))
			(diseqNat_1 x_3 (succ_0 zero_0))
			(= x_3 zero_0))
		(third_0 x_45 x_3))))
(declare-fun twoThirds_0 (Nat_0 Nat_0) Bool)
(assert (forall ((x_4 Nat_0) (x_46 Nat_0))
	(=>	(and (= x_46 (succ_0 zero_0))
			(= x_4 (succ_0 (succ_0 zero_0))))
		(twoThirds_0 x_46 x_4))))
(assert (forall ((x_4 Nat_0) (x_47 Nat_0))
	(=>	(and (= x_47 (succ_0 zero_0))
			(diseqNat_1 x_4 (succ_0 (succ_0 zero_0)))
			(= x_4 (succ_0 zero_0)))
		(twoThirds_0 x_47 x_4))))
(assert (forall ((x_4 Nat_0) (x_48 Nat_0))
	(=>	(and (= x_48 (succ_0 zero_0))
			(= x_4 (succ_0 (succ_0 zero_0))))
		(twoThirds_0 x_48 x_4))))
(assert (forall ((x_4 Nat_0) (y_5 Nat_0) (x_49 Nat_0) (x_50 Nat_0) (x_51 Nat_0) (x_52 Nat_0))
	(=>	(and (= x_49 x_52)
			(minus_0 x_50 (succ_0 y_5) (succ_0 (succ_0 (succ_0 zero_0))))
			(twoThirds_0 x_51 x_50)
			(plus_0 x_52 (succ_0 (succ_0 zero_0)) x_51)
			(diseqNat_1 x_4 (succ_0 (succ_0 zero_0)))
			(diseqNat_1 x_4 (succ_0 zero_0))
			(= x_4 (succ_0 y_5)))
		(twoThirds_0 x_49 x_4))))
(assert (forall ((x_4 Nat_0) (x_53 Nat_0))
	(=>	(and (= x_53 (succ_0 zero_0))
			(= x_4 (succ_0 (succ_0 zero_0))))
		(twoThirds_0 x_53 x_4))))
(assert (forall ((x_4 Nat_0) (x_54 Nat_0))
	(=>	(and (= x_54 (succ_0 zero_0))
			(diseqNat_1 x_4 (succ_0 (succ_0 zero_0)))
			(= x_4 (succ_0 zero_0)))
		(twoThirds_0 x_54 x_4))))
(assert (forall ((x_4 Nat_0) (x_55 Nat_0))
	(=>	(and (= x_55 (succ_0 zero_0))
			(= x_4 (succ_0 (succ_0 zero_0))))
		(twoThirds_0 x_55 x_4))))
(assert (forall ((x_4 Nat_0) (x_56 Nat_0))
	(=>	(and (= x_56 zero_0)
			(diseqNat_1 x_4 (succ_0 (succ_0 zero_0)))
			(diseqNat_1 x_4 (succ_0 zero_0))
			(= x_4 zero_0))
		(twoThirds_0 x_56 x_4))))
(declare-fun leq_0 (Bool Nat_0 Nat_0) Bool)
(assert (forall ((x_5 Nat_0) (y_6 Nat_0) (z_4 Nat_0) (x_6 Nat_0) (x_57 Bool) (x_58 Bool))
	(=>	(and (= x_57 x_58)
			(leq_0 x_58 z_4 x_6)
			(= x_5 (succ_0 z_4))
			(= y_6 (succ_0 x_6)))
		(leq_0 x_57 x_5 y_6))))
(assert (forall ((x_5 Nat_0) (y_6 Nat_0) (z_4 Nat_0) (x_59 Bool))
	(=>	(and (= x_59 false)
			(= x_5 (succ_0 z_4))
			(= y_6 zero_0))
		(leq_0 x_59 x_5 y_6))))
(assert (forall ((x_5 Nat_0) (y_6 Nat_0) (x_60 Bool))
	(=>	(and (= x_60 true)
			(= x_5 zero_0))
		(leq_0 x_60 x_5 y_6))))
(declare-fun ordered_0 (Bool list_0) Bool)
(assert (forall ((x_7 list_0) (y_7 Nat_0) (z_5 list_0) (y_8 Nat_0) (xs_1 list_0) (x_61 Bool) (x_62 Bool) (x_63 Bool))
	(=>	(and (= x_61 (and x_62 x_63))
			(leq_0 x_62 y_7 y_8)
			(ordered_0 x_63 (cons_0 y_8 xs_1))
			(= x_7 (cons_0 y_7 z_5))
			(= z_5 (cons_0 y_8 xs_1)))
		(ordered_0 x_61 x_7))))
(assert (forall ((x_7 list_0) (y_7 Nat_0) (z_5 list_0) (x_64 Bool))
	(=>	(and (= x_64 true)
			(= x_7 (cons_0 y_7 z_5))
			(= z_5 nil_0))
		(ordered_0 x_64 x_7))))
(assert (forall ((x_7 list_0) (x_65 Bool))
	(=>	(and (= x_65 true)
			(= x_7 nil_0))
		(ordered_0 x_65 x_7))))
(declare-fun sort_0 (list_0 Nat_0 Nat_0) Bool)
(assert (forall ((x_8 Nat_0) (y_9 Nat_0) (x_67 list_0) (x_66 Bool))
	(=>	(and (= x_67 (cons_0 x_8 (cons_0 y_9 nil_0)))
			(= x_66 true)
			(leq_0 x_66 x_8 y_9))
		(sort_0 x_67 x_8 y_9))))
(assert (forall ((x_8 Nat_0) (y_9 Nat_0) (x_69 list_0) (x_68 Bool))
	(=>	(and (= x_69 (cons_0 y_9 (cons_0 x_8 nil_0)))
			(= x_68 false)
			(leq_0 x_68 x_8 y_9))
		(sort_0 x_69 x_8 y_9))))
(declare-fun length_0 (Nat_0 list_0) Bool)
(assert (forall ((x_9 list_0) (y_10 Nat_0) (l_0 list_0) (x_70 Nat_0) (x_71 Nat_0) (x_72 Nat_0))
	(=>	(and (= x_70 x_72)
			(length_0 x_71 l_0)
			(plus_0 x_72 (succ_0 zero_0) x_71)
			(= x_9 (cons_0 y_10 l_0)))
		(length_0 x_70 x_9))))
(assert (forall ((x_9 list_0) (x_73 Nat_0))
	(=>	(and (= x_73 zero_0)
			(= x_9 nil_0))
		(length_0 x_73 x_9))))
(declare-fun drop_0 (list_0 Nat_0 list_0) Bool)
(assert (forall ((x_10 Nat_0) (y_11 list_0) (z_6 Nat_0) (z_7 Nat_0) (xs_2 list_0) (x_74 list_0) (x_75 list_0))
	(=>	(and (= x_74 x_75)
			(drop_0 x_75 z_6 xs_2)
			(= x_10 (succ_0 z_6))
			(= y_11 (cons_0 z_7 xs_2)))
		(drop_0 x_74 x_10 y_11))))
(assert (forall ((x_10 Nat_0) (y_11 list_0) (z_6 Nat_0) (x_76 list_0))
	(=>	(and (= x_76 nil_0)
			(= x_10 (succ_0 z_6))
			(= y_11 nil_0))
		(drop_0 x_76 x_10 y_11))))
(assert (forall ((x_10 Nat_0) (y_11 list_0) (x_77 list_0))
	(=>	(and (= x_77 y_11)
			(= x_10 zero_0))
		(drop_0 x_77 x_10 y_11))))
(declare-fun splitAt_0 (pair_0 Nat_0 list_0) Bool)
(assert (forall ((x_11 Nat_0) (y_12 list_0) (x_78 pair_0) (x_79 list_0) (x_80 list_0))
	(=>	(and (= x_78 (pair_1 x_79 x_80))
			(take_0 x_79 x_11 y_12)
			(drop_0 x_80 x_11 y_12))
		(splitAt_0 x_78 x_11 y_12))))
(declare-fun x_12 (list_0 list_0 list_0) Bool)
(assert (forall ((x_13 list_0) (y_13 list_0) (z_8 Nat_0) (xs_3 list_0) (x_81 list_0) (x_82 list_0))
	(=>	(and (= x_81 (cons_0 z_8 x_82))
			(x_12 x_82 xs_3 y_13)
			(= x_13 (cons_0 z_8 xs_3)))
		(x_12 x_81 x_13 y_13))))
(assert (forall ((x_13 list_0) (y_13 list_0) (x_83 list_0))
	(=>	(and (= x_83 y_13)
			(= x_13 nil_0))
		(x_12 x_83 x_13 y_13))))
(declare-fun nstoogesort_0 (list_0 list_0) Bool)
(declare-fun nstoogesort_1 (list_0 list_0) Bool)
(declare-fun nstoogesort_2 (list_0 list_0) Bool)
(assert (forall ((x_14 list_0) (ys_0 list_0) (zs_0 list_0) (x_87 list_0) (x_88 list_0) (x_89 list_0) (x_84 Nat_0) (x_85 Nat_0) (x_86 pair_0))
	(=>	(and (= x_87 x_89)
			(nstoogesort_1 x_88 ys_0)
			(x_12 x_89 x_88 zs_0)
			(= x_86 (pair_1 ys_0 zs_0))
			(length_0 x_84 x_14)
			(twoThirds_0 x_85 x_84)
			(splitAt_0 x_86 x_85 x_14))
		(nstoogesort_0 x_87 x_14))))
(assert (forall ((x_15 list_0) (y_14 Nat_0) (z_9 list_0) (y_15 Nat_0) (x_16 list_0) (x_17 Nat_0) (x_18 list_0) (x_90 list_0) (x_91 list_0) (x_92 list_0) (x_93 list_0))
	(=>	(and (= x_90 x_93)
			(nstoogesort_0 x_91 (cons_0 y_14 (cons_0 y_15 (cons_0 x_17 x_18))))
			(nstoogesort_2 x_92 x_91)
			(nstoogesort_0 x_93 x_92)
			(= x_15 (cons_0 y_14 z_9))
			(= z_9 (cons_0 y_15 x_16))
			(= x_16 (cons_0 x_17 x_18)))
		(nstoogesort_1 x_90 x_15))))
(assert (forall ((x_15 list_0) (y_14 Nat_0) (z_9 list_0) (y_15 Nat_0) (x_16 list_0) (x_94 list_0) (x_95 list_0))
	(=>	(and (= x_94 x_95)
			(sort_0 x_95 y_14 y_15)
			(= x_15 (cons_0 y_14 z_9))
			(= z_9 (cons_0 y_15 x_16))
			(= x_16 nil_0))
		(nstoogesort_1 x_94 x_15))))
(assert (forall ((x_15 list_0) (y_14 Nat_0) (z_9 list_0) (x_96 list_0))
	(=>	(and (= x_96 (cons_0 y_14 nil_0))
			(= x_15 (cons_0 y_14 z_9))
			(= z_9 nil_0))
		(nstoogesort_1 x_96 x_15))))
(assert (forall ((x_15 list_0) (x_97 list_0))
	(=>	(and (= x_97 nil_0)
			(= x_15 nil_0))
		(nstoogesort_1 x_97 x_15))))
(assert (forall ((x_19 list_0) (ys_1 list_0) (zs_1 list_0) (x_101 list_0) (x_102 list_0) (x_103 list_0) (x_98 Nat_0) (x_99 Nat_0) (x_100 pair_0))
	(=>	(and (= x_101 x_103)
			(nstoogesort_1 x_102 zs_1)
			(x_12 x_103 ys_1 x_102)
			(= x_100 (pair_1 ys_1 zs_1))
			(length_0 x_98 x_19)
			(third_0 x_99 x_98)
			(splitAt_0 x_100 x_99 x_19))
		(nstoogesort_2 x_101 x_19))))
(assert (forall ((x_20 Nat_0) (y_16 Nat_0) (z_10 Nat_0) (x_104 Nat_0) (x_105 Nat_0) (x_106 Nat_0) (x_107 Nat_0))
	(=>	(and (diseqNat_1 x_105 x_107)
			(plus_0 x_104 y_16 z_10)
			(plus_0 x_105 x_20 x_104)
			(plus_0 x_106 x_20 y_16)
			(plus_0 x_107 x_106 z_10))
		false)))
(assert (forall ((x_21 Nat_0) (y_17 Nat_0) (x_108 Nat_0) (x_109 Nat_0))
	(=>	(and (diseqNat_1 x_108 x_109)
			(plus_0 x_108 x_21 y_17)
			(plus_0 x_109 y_17 x_21))
		false)))
(assert (forall ((x_22 Nat_0) (x_110 Nat_0))
	(=>	(and (diseqNat_1 x_110 x_22)
			(plus_0 x_110 x_22 zero_0))
		false)))
(assert (forall ((x_23 Nat_0) (x_111 Nat_0))
	(=>	(and (diseqNat_1 x_111 x_23)
			(plus_0 x_111 zero_0 x_23))
		false)))
(assert (forall ((xs_4 list_0) (x_112 list_0) (x_113 Bool))
	(=>	(and (= x_113 false)
			(nstoogesort_1 x_112 xs_4)
			(ordered_0 x_113 x_112))
		false)))
(check-sat)
